
Gurobi 9.0.1 (linux64) logging started Thu Apr 30 21:47:32 2020

Gurobi Optimizer version 9.0.1 build v9.0.1rc0 (linux64)
Optimize a model with 32942 rows, 27380 columns and 605400 nonzeros
Model fingerprint: 0x1d72c904
Variable types: 0 continuous, 27380 integer (27342 binary)
Coefficient statistics:
  Matrix range     [1e+00, 2e+01]
  Objective range  [2e+00, 1e+02]
  Bounds range     [1e+00, 1e+00]
  RHS range        [1e+00, 1e+00]

User MIP start produced solution with objective 1199 (0.86s)
Loaded user MIP start with objective 1199

Presolve removed 15662 rows and 10107 columns (presolve time = 5s) ...
Presolve removed 15662 rows and 10167 columns (presolve time = 11s) ...
Presolve removed 15704 rows and 10167 columns
Presolve time: 13.63s
Presolved: 17238 rows, 17213 columns, 369660 nonzeros
Variable types: 0 continuous, 17213 integer (17213 binary)

Root simplex log...

Iteration    Objective       Primal Inf.    Dual Inf.      Time
       0    0.0000000e+00   1.580000e+02   0.000000e+00     16s
    2748    5.8791842e+02   1.946405e+03   0.000000e+00     20s
    4448    6.0185031e+02   4.653899e+03   0.000000e+00     25s
    6068    6.0980606e+02   3.265276e+03   0.000000e+00     30s
    7364    6.1399527e+02   3.426969e+04   0.000000e+00     35s
    8579    6.1735983e+02   7.366945e+03   0.000000e+00     40s
    9632    6.1887485e+02   1.968744e+04   0.000000e+00     45s
   10766    6.2153286e+02   1.987641e+03   0.000000e+00     50s
   11815    6.2328183e+02   1.880084e+03   0.000000e+00     55s
   12867    6.2419755e+02   1.704526e+03   0.000000e+00     60s
   13868    6.2562212e+02   8.355889e+03   0.000000e+00     65s
   14749    6.2676642e+02   9.392236e+02   0.000000e+00     71s
   15429    6.2730272e+02   3.001254e+03   0.000000e+00     75s
   16369    6.2777308e+02   6.656157e+00   0.000000e+00     81s
   16469    6.2778138e+02   0.000000e+00   0.000000e+00     81s

Root relaxation: objective 6.277814e+02, 16469 iterations, 66.83 seconds

    Nodes    |    Current Node    |     Objective Bounds      |     Work
 Expl Unexpl |  Obj  Depth IntInf | Incumbent    BestBd   Gap | It/Node Time

     0     0  627.78138    0 1683 1199.00000  627.78138  47.6%     -   89s
     0     0  661.38256    0 1597 1199.00000  661.38256  44.8%     -  158s
     0     0  661.40088    0 1596 1199.00000  661.40088  44.8%     -  166s
     0     0  661.40894    0 1600 1199.00000  661.40894  44.8%     -  168s
     0     0  661.40973    0 1608 1199.00000  661.40973  44.8%     -  169s
     0     0  676.32233    0 1669 1199.00000  676.32233  43.6%     -  215s
     0     0  677.74378    0 1717 1199.00000  677.74378  43.5%     -  236s
     0     0  677.95129    0 1729 1199.00000  677.95129  43.5%     -  241s
     0     0  678.16304    0 1719 1199.00000  678.16304  43.4%     -  245s
     0     0  678.17189    0 1699 1199.00000  678.17189  43.4%     -  247s
     0     0  678.17236    0 1701 1199.00000  678.17236  43.4%     -  249s
     0     0  690.93806    0 1713 1199.00000  690.93806  42.4%     -  316s
     0     0  692.07143    0 1720 1199.00000  692.07143  42.3%     -  345s
     0     0  692.21918    0 1721 1199.00000  692.21918  42.3%     -  350s
     0     0  692.23471    0 1739 1199.00000  692.23471  42.3%     -  353s
     0     0  692.23745    0 1727 1199.00000  692.23745  42.3%     -  355s
     0     0  695.90777    0 1747 1199.00000  695.90777  42.0%     -  404s
     0     0  696.39184    0 1745 1199.00000  696.39184  41.9%     -  426s
     0     0  696.58192    0 1743 1199.00000  696.58192  41.9%     -  436s
     0     0  696.61799    0 1754 1199.00000  696.61799  41.9%     -  440s
     0     0  696.62066    0 1761 1199.00000  696.62066  41.9%     -  442s
     0     0  697.94236    0 1760 1199.00000  697.94236  41.8%     -  480s
     0     0  697.98265    0 1763 1199.00000  697.98265  41.8%     -  487s
     0     0  697.98839    0 1766 1199.00000  697.98839  41.8%     -  490s
     0     0  699.30268    0 1727 1199.00000  699.30268  41.7%     -  521s
     0     0  699.53563    0 1725 1199.00000  699.53563  41.7%     -  531s
     0     0  699.57000    0 1738 1199.00000  699.57000  41.7%     -  535s
     0     0  699.57926    0 1721 1199.00000  699.57926  41.7%     -  537s
     0     0  700.41873    0 1745 1199.00000  700.41873  41.6%     -  566s
     0     0  700.51457    0 1769 1199.00000  700.51457  41.6%     -  587s
     0     0  700.52887    0 1768 1199.00000  700.52887  41.6%     -  590s
     0     0  701.17515    0 1759 1199.00000  701.17515  41.5%     -  610s
     0     0  701.22551    0 1772 1199.00000  701.22551  41.5%     -  615s
     0     0  701.23451    0 1782 1199.00000  701.23451  41.5%     -  618s
     0     0  701.32458    0 1783 1199.00000  701.32458  41.5%     -  631s
     0     0  701.33795    0 1787 1199.00000  701.33795  41.5%     -  635s
     0     0  701.58240    0 1757 1199.00000  701.58240  41.5%     -  652s
     0     0  701.64852    0 1768 1199.00000  701.64852  41.5%     -  658s
     0     0  701.66446    0 1788 1199.00000  701.66446  41.5%     -  662s
     0     0  701.66708    0 1796 1199.00000  701.66708  41.5%     -  665s
     0     0  701.90963    0 1750 1199.00000  701.90963  41.5%     -  682s
     0     0  701.98283    0 1747 1199.00000  701.98283  41.5%     -  689s
     0     0  702.00417    0 1756 1199.00000  702.00417  41.5%     -  693s
     0     0  702.00706    0 1751 1199.00000  702.00706  41.5%     -  694s
     0     0  702.12158    0 1771 1199.00000  702.12158  41.4%     -  707s
     0     0  702.14158    0 1777 1199.00000  702.14158  41.4%     -  711s
     0     0  702.14375    0 1792 1199.00000  702.14375  41.4%     -  713s
     0     0  702.45433    0 1785 1199.00000  702.45433  41.4%     -  727s
     0     0  702.49250    0 1779 1199.00000  702.49250  41.4%     -  733s
     0     0  702.50064    0 1786 1199.00000  702.50064  41.4%     -  736s
     0     0  702.52212    0 1733 1199.00000  702.52212  41.4%     -  746s
     0     0  702.52821    0 1731 1199.00000  702.52821  41.4%     -  750s
     0     0  702.71545    0 1705 1199.00000  702.71545  41.4%     -  764s
     0     0  702.88956    0 1705 1199.00000  702.88956  41.4%     -  773s
     0     0  702.90489    0 1715 1199.00000  702.90489  41.4%     -  775s
     0     0  703.30250    0 1772 1199.00000  703.30250  41.3%     -  793s
     0     0  703.34649    0 1776 1199.00000  703.34649  41.3%     -  798s
     0     0  703.35272    0 1791 1199.00000  703.35272  41.3%     -  801s
     0     0  703.38259    0 1785 1199.00000  703.38259  41.3%     -  811s
     0     0  703.38943    0 1785 1199.00000  703.38943  41.3%     -  814s
     0     0  703.66972    0 1788 1199.00000  703.66972  41.3%     -  828s
     0     0  703.70814    0 1783 1199.00000  703.70814  41.3%     -  847s
     0     0  703.71781    0 1803 1199.00000  703.71781  41.3%     -  851s
     0     0  704.06927    0 1816 1199.00000  704.06927  41.3%     -  869s
     0     0  704.09326    0 1797 1199.00000  704.09326  41.3%     -  875s
     0     0  704.09509    0 1792 1199.00000  704.09509  41.3%     -  877s
     0     0  704.36844    0 1786 1199.00000  704.36844  41.3%     -  892s
     0     0  704.42857    0 1795 1199.00000  704.42857  41.2%     -  899s
     0     0  704.43223    0 1795 1199.00000  704.43223  41.2%     -  901s
     0     0  704.44581    0 1777 1199.00000  704.44581  41.2%     -  911s
     0     0  704.45615    0 1801 1199.00000  704.45615  41.2%     -  915s
     0     0  704.66297    0 1801 1199.00000  704.66297  41.2%     -  929s
     0     0  704.69924    0 1807 1199.00000  704.69924  41.2%     -  937s
     0     0  704.69969    0 1798 1199.00000  704.69969  41.2%     -  939s
     0     0  704.71671    0 1801 1199.00000  704.71671  41.2%     -  948s
     0     0  704.71822    0 1807 1199.00000  704.71822  41.2%     -  951s
     0     0  704.72568    0 1829 1199.00000  704.72568  41.2%     -  960s
     0     0  704.72568    0 1820 1199.00000  704.72568  41.2%     -  971s
     0     2  704.72568    0 1810 1199.00000  704.72568  41.2%     - 1171s
     1     3  722.31788    1 1566 1199.00000  704.72568  41.2% 19453 1292s
     2     4  704.77268    1 1784 1199.00000  704.77268  41.2%  9972 1296s
     3     5  705.81753    2 1775 1199.00000  704.77356  41.2%  8553 1340s
     4     6  715.93006    2 1665 1199.00000  705.82029  41.1% 10586 1460s
     5     7  707.11160    3 1726 1199.00000  705.83690  41.1%  9095 1484s
     6     8  716.21768    3 1627 1199.00000  707.11277  41.0%  9962 1589s
     7     9  707.59426    4 1735 1199.00000  707.12217  41.0%  8753 1602s
     8    10  721.58126    4 1545 1199.00000  707.59426  41.0%  9676 1708s
     9    11  708.28377    5 1715 1199.00000  707.59426  41.0%  8867 1725s
    10    12  723.11083    5 1500 1199.00000  708.28377  40.9%  9452 1801s
    11    13  709.25900    6 1709 1199.00000  708.28377  40.9%  8964 1820s
    12    14  731.26957    6 1541 1199.00000  709.25900  40.8%  9418 1896s
    13    15  709.39032    7 1701 1199.00000  709.25900  40.8%  8807 1904s
    14    16  728.48831    7 1336 1199.00000  709.39032  40.8%  9018 1969s
    15    17  709.48454    8 1679 1199.00000  709.39032  40.8%  8500 1977s
    16    18  723.92718    8 1412 1199.00000  709.48454  40.8%  8622 2035s
    17    19  709.70086    9 1721 1199.00000  709.48454  40.8%  8160 2041s
    18    20  725.08446    9 1520 1199.00000  709.70086  40.8%  8733 2156s
    19    21  710.11834   10 1721 1199.00000  709.70086  40.8%  8408 2170s
    20    22  731.50759   10 1420 1199.00000  710.11915  40.8%  8684 2243s
    21    23  710.28063   11 1740 1199.00000  710.12545  40.8%  8317 2248s
    22    24  733.95245   12 1603 1199.00000  710.12545  40.8%  9157 2424s
    23    25  710.74455   12 1709 1199.00000  710.12545  40.8%  8851 2436s
    24    26  743.88486   13 1480 1199.00000  710.12545  40.8%  9096 2520s
    25    27  711.52695   13 1739 1199.00000  710.12545  40.8%  8813 2535s
    26    28  730.97376   14 1413 1199.00000  710.12545  40.8%  9378 2685s
    27    29  711.79650   14 1749 1199.00000  710.12545  40.8%  9100 2712s
    28    30  760.83987   15 1394 1199.00000  710.12545  40.8%  9348 2799s
    29    31  712.23691   15 1719 1199.00000  710.12545  40.8%  9061 2806s
    30    32  713.45445   16 1719 1199.00000  710.12545  40.8%  8884 2834s
    31    33  729.70459   16 1585 1199.00000  710.12545  40.8%  9090 2947s
    32    34  713.65307   17 1728 1199.00000  710.12545  40.8%  8831 2953s
    33    35  734.08560   17 1384 1199.00000  710.12545  40.8%  9372 3108s
    34    36  713.90219   18 1680 1199.00000  710.12545  40.8%  9155 3117s
    35    37  731.67452   18 1449 1199.00000  710.12545  40.8%  9245 3182s
    36    38  714.18904   19 1683 1199.00000  710.12545  40.8%  9044 3194s
    37    39  714.26036   20 1695 1199.00000  710.12545  40.8%  8811 3197s
    38    40  735.12905   21 1477 1199.00000  710.12545  40.8%  9055 3309s
    39    41  714.34325   21 1712 1199.00000  710.12545  40.8%  8851 3314s
    40    42  733.30667   22 1393 1199.00000  710.12545  40.8%  8946 3379s
    41    43  714.78946   22 1680 1199.00000  710.12545  40.8%  8760 3387s
    42    44  715.13807   23 1708 1199.00000  710.12545  40.8%  8578 3395s
    43    45  742.22920   23 1562 1199.00000  710.12545  40.8%  8926 3535s
    44    46  715.55126   24 1691 1199.00000  710.12545  40.8%  8763 3544s

Cutting planes:
  Cover: 2
  MIR: 114
  StrongCG: 13
  Zero half: 52
  RLT: 364

Explored 45 nodes (476810 simplex iterations) in 3600.05 seconds
Thread count was 1 (of 40 available processors)

Solution count 1: 1199 

Time limit reached
Best objective 1.199000000000e+03, best bound 7.110000000000e+02, gap 40.7006%

User-callback calls 41480, time in user-callback 0.12 sec
